units real
atom_style full

dimension 3
boundary p p p

bond_style harmonic
angle_style harmonic
dihedral_style fourier
special_bonds lj 0.0 0.0 0.5 coul 0.0 0.0 0.8333333333 
pair_style lj/cut/coul/long 9.0 9.0
pair_modify mix arithmetic tail yes

read_data /home/zhenghaowu/mcp_lammps/examples/output/test_openff_ethanol.lmp

thermo_style custom ebond eangle edihed eimp epair evdwl ecoul elong etail pe

kspace_style pppm 1e-4
run 0
